966.74,38.95,44.48
981.35,38.37,43.82
1163.45,32.36,36.96
1034.75,36.39,41.56
1056.94,35.63,40.69
1059.94,35.52,40.57
1035.98,36.35,41.51
1057.36,35.61,40.67
1038.83,36.25,41.4
996.53,37.79,43.15
1004.94,37.47,42.79
1089.66,34.56,39.47
1053.76,35.73,40.81
1009.94,37.28,42.58
975.66,38.59,44.08
1053.63,35.74,40.82
1092.64,34.46,39.36
892.19,42.2,48.2
987.41,38.13,43.55
1077.98,34.93,39.89
